N = 30;
M = 34;
Edge_Start = [1, 2, 3, 3, 4, 5, 6, 7, 8, 9, 9, 10, 11, 12, 13, 13, 14, 15, 16, 16, 17, 18, 18, 20, 20, 21, 22, 22, 24, 25, 26, 27, 28, 29];
Edge_End = [2, 3, 4, 10, 5, 12, 7, 14, 9, 10, 17, 11, 12, 13, 14, 21, 15, 23, 17, 24, 18, 19, 26, 21, 28, 22, 23, 30, 25, 26, 27, 28, 29, 30];
L = [10, 1, 10, 19, 12, 4, 5, 4, 7, 12, 10, 3, 7, 16, 7, 18, 2, 11, 7, 14, 5, 8, 6, 13, 16, 16, 3, 14, 1, 10, 7, 6, 3, 16];
T = [4, 1, 9, 25, 16, 1, 7, 14, 1, 13, 19, 1, 6, 17, 5, 17, 6, 12, 6, 5, 8, 7, 6, 14, 14, 23, 1, 16, 1, 1, 5, 10, 13, 13];
Lower_Bound = [0, 4, 5, 14, 30, 74, 67, 44, 43, 30, 31, 31, 48, 53, 59, 68, 62, 70, 77, 79, 65, 72, 71, 73, 74, 75, 80, 90, 101, 88];
Upper_Bound = [1, 5, 6, 15, 31, 75, 68, 45, 44, 31, 32, 32, 49, 54, 60, 69, 63, 71, 78, 80, 66, 73, 72, 74, 75, 76, 81, 91, 102, 89];
Start = 1;
End = 30;
Time = 90;
